946
65
38
66
11
59
26
12
40
43
23
56
64
42
41
1
73
33
63
51
16
3
37
20
70
60
71
36
8
52
27
13
54
47
21
69
6
68
75
0
17
9
32
44
18
50
25
55
24
49
39
72
58
10
31
7
62
2
74
22
61
28
45
29
48
30
57
15
5
14
53
35
19
46
34
67
4
